31371 35043 
31157 35210 
31526 35024 
31421 35038 
31741 34858 
33057 34298 
31914 34762 
33230 34202 
33184 34220 
33482 34036 
33436 34054 
33673 33877 
33766 33837 
34287 33394 
34217 33453 
34446 33293 
34400 33311 
